# Solution for model r5_t18_m7_8
# Finished Task: 17 / 18
# Makespan: 514.0, Total Distance: 867.0, Total Time: 0.0824
# R O S F
0 0 19 0.0 0.0
1 1 21 0.0 0.0
2 2 12 0.0 0.0
3 3 18 0.0 0.0
4 4 22 0.0 0.0
5 2 20 335.0 363.0
6 3 16 358.0 382.0
7 1 13 244.0 275.0
8 4 -1 464.0 500.0
9 0 -1 382.0 412.0
10 4 8 409.0 443.0
11 -1 -1 -1.0 -1.0
12 2 15 175.0 206.0
13 1 -1 356.0 395.0
14 3 6 302.0 322.0
15 2 5 269.0 307.0
16 3 17 397.0 436.0
17 3 -1 436.0 472.0
18 3 14 195.0 226.0
19 0 9 324.0 356.0
20 2 -1 483.0 514.0
21 1 7 82.0 113.0
22 4 10 275.0 303.0
